c Result of efficient AIG-to-CNF conversion using package CNF
p cnf 372 1288
-2 3 289 -302 -304 0
-2 3 289 302 304 0
2 -289 0
2 302 -304 0
2 -3 0
2 -302 304 0
-3 4 147 -285 -286 0
-3 -4 -147 -285 -286 0
-3 4 147 285 286 0
-3 -4 -147 285 286 0
3 4 -147 0
3 -4 147 0
3 285 -286 0
3 -285 286 0
4 -5 24 0
4 -335 24 0
-4 -24 0
-4 335 5 0
5 6 -18 0
-5 -6 0
-5 18 0
-6 335 7 0
6 -335 0
6 -7 0
-7 8 14 16 17 0
7 -17 0
7 -8 0
7 -16 0
7 -14 0
-8 332 333 9 11 0
8 -332 0
8 -11 0
8 -9 0
8 -333 0
-9 324 330 331 10 0
9 -10 0
9 -331 0
9 -324 0
9 -330 0
-10 328 329 334 0
10 -328 0
10 -334 0
10 -329 0
-11 320 321 12 13 0
11 -320 0
11 -13 0
11 -12 0
11 -321 0
-12 325 326 327 0
12 -325 0
12 -327 0
12 -326 0
-13 316 317 322 323 0
13 -323 0
13 -322 0
13 -316 0
13 -317 0
-14 314 318 319 15 0
14 -15 0
14 -319 0
14 -314 0
14 -318 0
-15 312 313 0
15 -312 0
15 -313 0
-16 308 315 0
16 -308 0
16 -315 0
-17 309 310 311 0
17 -309 0
17 -311 0
17 -310 0
18 336 -19 0
-18 -336 0
-18 19 0
19 337 -20 0
19 -337 338 -23 0
-19 -337 -338 0
-19 337 20 0
-19 -337 23 0
20 -338 -22 0
20 338 -21 0
-20 338 21 0
-20 -338 22 0
-21 -339 368 0
-21 339 367 0
21 339 -367 0
21 -339 -368 0
-22 -339 370 0
-22 339 369 0
22 339 -369 0
22 -339 -370 0
23 339 -371 0
-23 -339 0
-23 371 0
-24 5 25 93 105 0
24 -5 0
24 -105 0
24 -93 0
24 -25 0
-25 26 -90 0
-25 335 26 78 0
25 -26 0
25 -335 90 0
25 -78 90 0
-26 -6 42 0
-26 27 42 56 0
26 -42 0
26 6 -56 0
26 6 -27 0
27 336 -39 0
27 336 -35 0
27 336 -28 0
-27 -336 0
-27 28 35 39 0
28 337 -29 0
28 -337 -32 0
-28 -337 32 0
-28 337 29 0
29 -338 -31 0
29 338 -30 0
-29 338 30 0
-29 -338 31 0
-30 -339 365 0
-30 339 364 0
30 339 -364 0
30 -339 -365 0
-31 -339 367 0
-31 339 366 0
31 339 -366 0
31 -339 -367 0
32 -338 -34 0
32 338 -33 0
-32 338 33 0
-32 -338 34 0
-33 -339 369 0
-33 339 368 0
33 339 -368 0
33 -339 -369 0
-34 -339 371 0
-34 339 370 0
34 339 -370 0
34 -339 -371 0
35 337 -36 0
35 -337 -38 0
-35 -337 38 0
-35 337 36 0
36 338 -37 0
36 -338 -21 0
-36 -338 21 0
-36 338 37 0
-37 -339 366 0
-37 339 365 0
37 339 -365 0
37 -339 -366 0
38 338 -22 0
38 -338 339 -371 0
-38 -338 -339 0
-38 338 22 0
-38 -338 371 0
39 337 -40 0
39 -337 -41 0
-39 -337 41 0
-39 337 40 0
40 -338 -33 0
40 338 -31 0
-40 338 31 0
-40 -338 33 0
41 338 -339 -371 0
41 338 339 -370 0
-41 -338 0
-41 -339 371 0
-41 339 370 0
42 -335 7 -54 0
42 335 7 -43 0
-42 -7 0
-42 -335 54 0
-42 335 43 0
43 336 -44 0
43 -336 -51 0
-43 -336 51 0
-43 336 44 0
44 337 -45 0
44 -337 -48 0
-44 -337 48 0
-44 337 45 0
45 -338 -47 0
45 338 -46 0
-45 338 46 0
-45 -338 47 0
-46 -339 355 0
-46 339 354 0
46 339 -354 0
46 -339 -355 0
-47 -339 357 0
-47 339 356 0
47 339 -356 0
47 -339 -357 0
48 -338 -50 0
48 338 -49 0
-48 338 49 0
-48 -338 50 0
-49 -339 359 0
-49 339 358 0
49 339 -358 0
49 -339 -359 0
-50 -339 361 0
-50 339 360 0
50 339 -360 0
50 -339 -361 0
51 -337 -40 0
51 337 -52 0
-51 337 52 0
-51 -337 40 0
52 338 -53 0
52 -338 -30 0
-52 -338 30 0
-52 338 53 0
-53 -339 363 0
-53 339 362 0
53 339 -362 0
53 -339 -363 0
54 336 -55 0
-54 -336 0
-54 55 0
55 337 -41 0
-55 -337 0
-55 41 0
-56 57 61 72 74 0
56 -61 0
56 -72 0
56 -57 0
56 -74 0
57 336 -58 0
57 -336 -60 0
-57 -336 60 0
-57 336 58 0
58 -337 -29 0
58 337 -59 0
-58 337 59 0
-58 -337 29 0
59 -338 -53 0
59 338 -50 0
-59 338 50 0
-59 -338 53 0
60 337 -32 0
-60 -337 0
-60 32 0
-61 -336 62 71 0
-61 336 62 69 0
61 -62 0
61 -336 -71 0
61 336 -69 0
62 -336 -55 0
62 336 -63 0
62 -336 -68 0
-62 336 63 0
-62 -336 55 68 0
-63 51 64 0
63 -51 0
63 -64 0
64 -337 -36 0
64 337 -65 0
-64 337 65 0
-64 -337 36 0
65 -338 -67 0
65 338 -66 0
-65 338 66 0
-65 -338 67 0
-66 -339 362 0
-66 339 361 0
66 339 -361 0
66 -339 -362 0
-67 -339 364 0
-67 339 363 0
67 339 -363 0
67 -339 -364 0
68 337 -38 0
-68 -337 0
-68 38 0
69 -337 -20 0
69 337 -70 0
-69 337 70 0
-69 -337 20 0
70 338 -67 0
70 -338 -37 0
-70 -338 37 0
-70 338 67 0
71 337 338 339 -371 0
-71 371 0
-71 -339 0
-71 -337 0
-71 -338 0
72 -336 -39 0
72 336 -73 0
-72 336 73 0
-72 -336 39 0
73 337 -48 0
73 -337 -52 0
-73 -337 52 0
-73 337 48 0
-74 336 75 0
-74 -336 19 0
74 -336 -19 0
74 336 -75 0
75 -337 -70 0
75 337 -76 0
-75 337 76 0
-75 -337 70 0
76 338 -77 0
76 -338 -66 0
-76 -338 66 0
-76 338 77 0
-77 -339 360 0
-77 339 359 0
77 339 -359 0
77 -339 -360 0
78 336 -84 0
78 -336 -79 0
78 336 -80 0
-78 -336 79 0
-78 336 80 84 0
-79 58 64 0
79 -58 0
79 -64 0
80 337 -81 0
80 -337 -83 0
-80 -337 83 0
-80 337 81 0
81 338 -82 0
81 -338 -46 0
-81 -338 46 0
-81 338 82 0
-82 -339 353 0
-82 339 352 0
82 339 -352 0
82 -339 -353 0
83 -338 -49 0
83 338 -47 0
-83 338 47 0
-83 -338 49 0
84 337 -85 0
84 -337 -88 0
-84 -337 88 0
-84 337 85 0
85 -338 -87 0
85 338 -86 0
-85 338 86 0
-85 -338 87 0
-86 -339 354 0
-86 339 353 0
86 339 -353 0
86 -339 -354 0
-87 -339 356 0
-87 339 355 0
87 339 -355 0
87 -339 -356 0
88 338 -89 0
88 -338 -77 0
-88 -338 77 0
-88 338 89 0
-89 -339 358 0
-89 339 357 0
89 339 -357 0
89 -339 -358 0
-90 335 7 0
-90 7 -91 0
-90 7 -92 0
90 -7 0
90 -335 91 92 0
91 336 -60 0
-91 -336 0
-91 60 0
92 336 -68 0
-92 -336 0
-92 68 0
-93 -6 97 0
-93 94 97 0
-93 -96 97 0
93 -97 0
93 6 -94 96 0
-94 336 95 0
94 -336 0
94 -95 0
95 -337 -65 0
95 337 -88 0
-95 337 88 0
-95 -337 65 0
96 -336 35 0
-96 336 0
-96 -35 0
-97 98 103 0
-97 -6 98 0
97 -98 0
97 6 -103 0
98 -335 7 -102 0
98 335 7 -99 0
-98 -7 0
-98 -335 102 0
-98 335 99 0
99 -336 -69 0
99 336 -100 0
-99 336 100 0
-99 -336 69 0
100 -337 -76 0
100 337 -101 0
-100 337 101 0
-100 -337 76 0
101 -338 -89 0
101 338 -87 0
-101 338 87 0
-101 -338 89 0
102 336 -71 0
-102 -336 0
-102 71 0
103 -336 -28 0
103 336 -104 0
-103 336 104 0
-103 -336 28 0
104 -337 -59 0
104 337 -83 0
-104 337 83 0
-104 -337 59 0
-105 106 138 141 143 0
105 -143 0
105 -141 0
105 -106 0
105 -138 0
-106 -7 0
-106 107 116 0
-106 107 -136 0
106 7 -107 0
106 7 -116 136 0
-107 -335 57 0
-107 335 108 0
107 -335 -57 0
107 335 -108 0
-108 -336 80 0
-108 336 109 0
108 -336 -80 0
108 336 -109 0
-109 337 113 0
-109 -337 110 0
109 -337 -110 0
109 337 -113 0
110 -338 -112 0
110 338 -111 0
-110 338 111 0
-110 -338 112 0
-111 -339 349 0
-111 339 348 0
111 339 -348 0
111 -339 -349 0
-112 -339 351 0
-112 339 350 0
112 339 -350 0
112 -339 -351 0
113 -338 -115 0
113 338 -114 0
-113 338 114 0
-113 -338 115 0
-114 -339 345 0
-114 339 344 0
114 339 -344 0
114 -339 -345 0
-115 -339 347 0
-115 339 346 0
115 339 -346 0
115 -339 -347 0
-116 335 336 126 0
-116 335 -336 117 0
116 -335 0
116 -336 -117 0
116 336 -126 0
-117 118 123 0
117 -118 0
117 -123 0
-118 -337 122 0
-118 337 110 119 0
118 337 -110 0
118 -337 -122 0
118 337 -119 0
119 -338 -120 0
119 338 -112 0
119 338 -121 0
-119 -338 120 0
-119 338 112 121 0
-120 -339 352 353 0
-120 339 351 352 0
120 -352 0
120 339 -351 0
120 -339 -353 0
-121 -339 350 0
-121 339 349 0
121 339 -349 0
121 -339 -350 0
-122 45 81 85 0
122 -45 0
122 -85 0
122 -81 0
123 -337 -101 0
123 337 -124 0
-123 337 124 0
-123 -337 101 0
124 338 -125 0
124 -338 -86 0
-124 -338 86 0
-124 338 125 0
-125 -339 352 0
-125 339 351 0
125 339 -351 0
125 -339 -352 0
-126 337 132 0
-126 -337 113 127 0
126 -337 -113 0
126 337 -132 0
126 -337 -127 0
-127 -338 121 129 0
-127 338 128 129 0
127 -129 0
127 -338 -121 0
127 338 -128 0
-128 -339 348 0
-128 339 347 0
128 339 -347 0
128 -339 -348 0
-129 -338 130 0
-129 338 115 131 0
129 -338 -130 0
129 338 -115 0
129 338 -131 0
-130 -339 348 349 0
-130 339 347 348 0
130 -348 0
130 339 -347 0
130 -339 -349 0
-131 -339 346 0
-131 339 345 0
131 339 -345 0
131 -339 -346 0
-132 338 134 135 0
-132 -338 133 134 0
132 -134 0
132 -338 -133 0
132 338 -135 0
-133 -339 345 346 0
-133 339 344 345 0
133 -345 0
133 339 -344 0
133 -339 -346 0
-134 -339 343 344 0
-134 339 342 343 0
134 -343 0
134 339 -342 0
134 -339 -344 0
-135 -339 341 342 0
-135 339 340 341 0
135 -341 0
135 339 -340 0
135 -339 -342 0
136 -335 72 103 137 0
-136 -137 0
-136 -103 0
-136 335 0
-136 -72 0
137 -19 -94 0
137 -75 96 0
137 -19 -75 0
137 -94 96 0
-137 19 -96 0
-137 75 94 0
138 335 7 -139 0
138 -335 7 -27 0
-138 -7 0
-138 -335 27 0
-138 335 139 0
139 -336 -104 0
139 336 -118 0
139 -336 -140 0
-139 336 118 0
-139 -336 104 140 0
-140 73 95 0
140 -73 0
140 -95 0
141 335 7 -142 0
141 -335 7 -18 0
-141 -7 0
-141 -335 18 0
-141 335 142 0
142 -336 -75 0
142 336 -123 0
-142 336 123 0
-142 -336 75 0
143 335 7 -144 0
143 -335 7 -61 0
-143 -7 0
-143 -335 61 0
-143 335 144 0
144 -336 -100 0
144 336 -145 0
144 -336 -146 0
-144 336 145 0
-144 -336 100 146 0
145 -337 -119 0
145 337 -127 0
145 -337 -124 0
-145 337 127 0
-145 -337 119 124 0
-146 44 84 0
146 -44 0
146 -84 0
147 148 256 261 -266 0
-147 266 0
-147 -261 0
-147 -148 0
-147 -256 0
-148 149 160 233 0
-148 -7 149 160 0
148 -160 0
148 -149 0
148 7 -233 0
149 336 6 -150 0
149 336 6 -151 0
-149 -336 0
-149 -6 0
-149 150 151 0
150 337 338 339 -340 0
-150 340 0
-150 -339 0
-150 -337 0
-150 -338 0
-151 -337 152 156 0
-151 152 156 159 0
151 -156 0
151 -152 0
151 337 -159 0
152 337 -153 0
-152 -337 0
-152 153 0
153 -338 -155 0
153 338 -154 0
-153 338 154 0
-153 -338 155 0
-154 339 343 0
-154 -339 342 0
154 -339 -342 0
154 339 -343 0
155 -339 -340 0
155 339 -341 0
-155 339 341 0
-155 -339 340 0
156 337 -157 0
-156 -337 0
-156 157 0
157 338 -158 0
157 -338 339 -340 0
-157 -338 -339 0
-157 338 158 0
-157 -338 340 0
-158 339 342 0
-158 -339 341 0
158 -339 -341 0
158 339 -342 0
159 338 339 -341 0
159 338 -339 -340 0
-159 -338 0
-159 -339 340 0
-159 339 341 0
-160 -6 161 216 0
-160 161 177 216 0
160 -216 0
160 -161 0
160 6 -177 0
161 335 7 -163 0
161 -335 7 -162 0
-161 -7 0
-161 -335 162 0
-161 335 163 0
162 336 -150 0
-162 -336 0
-162 150 0
163 336 -164 0
163 -336 -171 0
-163 -336 171 0
-163 336 164 0
164 337 -165 0
164 -337 -168 0
-164 -337 168 0
-164 337 165 0
165 -338 -167 0
165 338 -166 0
-165 338 166 0
-165 -338 167 0
-166 339 356 0
-166 -339 355 0
166 -339 -355 0
166 339 -356 0
-167 339 354 0
-167 -339 353 0
167 -339 -353 0
167 339 -354 0
168 -338 -170 0
168 338 -169 0
-168 338 169 0
-168 -338 170 0
-169 339 352 0
-169 -339 351 0
169 -339 -351 0
169 339 -352 0
-170 339 350 0
-170 -339 349 0
170 -339 -349 0
170 339 -350 0
171 337 -172 0
171 -337 -175 0
-171 -337 175 0
-171 337 172 0
172 -338 -174 0
172 338 -173 0
-172 338 173 0
-172 -338 174 0
-173 339 348 0
-173 -339 347 0
173 -339 -347 0
173 339 -348 0
-174 339 346 0
-174 -339 345 0
174 -339 -345 0
174 339 -346 0
175 338 -176 0
175 -338 -158 0
-175 -338 158 0
-175 338 176 0
-176 339 344 0
-176 -339 343 0
176 -339 -343 0
176 339 -344 0
-177 178 182 193 199 0
177 -178 0
177 -199 0
177 -193 0
177 -182 0
178 336 -179 0
178 -336 -180 0
-178 -336 180 0
-178 336 179 0
179 337 -168 0
179 -337 -172 0
-179 -337 172 0
-179 337 168 0
180 337 -175 0
180 -337 338 -181 0
-180 -337 -338 0
-180 337 175 0
-180 -337 181 0
181 339 -340 0
-181 -339 0
-181 340 0
182 336 -183 0
182 -336 -190 0
-182 -336 190 0
-182 336 183 0
183 337 -184 0
183 -337 -187 0
-183 -337 187 0
-183 337 184 0
184 -338 -186 0
184 338 -185 0
-184 338 185 0
-184 -338 186 0
-185 339 353 0
-185 -339 352 0
185 -339 -352 0
185 339 -353 0
-186 339 351 0
-186 -339 350 0
186 -339 -350 0
186 339 -351 0
187 -338 -189 0
187 338 -188 0
-187 338 188 0
-187 -338 189 0
-188 339 349 0
-188 -339 348 0
188 -339 -348 0
188 339 -349 0
-189 339 347 0
-189 -339 346 0
189 -339 -346 0
189 339 -347 0
190 -337 -159 0
190 337 -191 0
-190 337 191 0
-190 -337 159 0
191 338 -192 0
191 -338 -154 0
-191 -338 154 0
-191 338 192 0
-192 339 345 0
-192 -339 344 0
192 -339 -344 0
192 339 -345 0
-193 -336 194 0
-193 180 194 0
193 -194 0
193 336 -180 0
194 336 -197 0
194 336 -195 0
194 336 -190 0
-194 -336 0
-194 190 195 197 0
195 -337 -153 0
195 337 -196 0
-195 337 196 0
-195 -337 153 0
196 -338 -192 0
196 338 -189 0
-196 338 189 0
-196 -338 192 0
197 -337 -157 0
197 337 -198 0
-197 337 198 0
-197 -337 157 0
198 -338 -176 0
198 338 -174 0
-198 338 174 0
-198 -338 176 0
-199 200 204 209 211 0
199 -211 0
199 -209 0
199 -200 0
199 -204 0
200 -336 -197 0
200 336 -201 0
-200 336 201 0
-200 -336 197 0
201 337 -202 0
201 -337 -203 0
-201 -337 203 0
-201 337 202 0
202 -338 -169 0
202 338 -167 0
-202 338 167 0
-202 -338 169 0
203 -338 -173 0
203 338 -170 0
-203 338 170 0
-203 -338 173 0
204 -336 -195 0
204 336 -205 0
-204 336 205 0
-204 -336 195 0
205 337 -206 0
205 -337 -208 0
-205 -337 208 0
-205 337 206 0
206 338 -207 0
206 -338 -185 0
-206 -338 185 0
-206 338 207 0
-207 339 355 0
-207 -339 354 0
207 -339 -354 0
207 339 -355 0
208 -338 -188 0
208 338 -186 0
-208 338 186 0
-208 -338 188 0
209 -336 -152 0
209 336 -210 0
-209 336 210 0
-209 -336 152 0
210 -337 -196 0
210 337 -208 0
-210 337 208 0
-210 -337 196 0
-211 336 171 212 0
-211 -336 150 212 0
211 -212 0
211 336 -171 0
211 -336 -150 0
-212 336 214 0
-212 -336 156 213 0
212 -336 -156 0
212 336 -214 0
212 -336 -213 0
213 337 -159 0
-213 -337 0
-213 159 0
-214 337 187 215 0
-214 -337 191 215 0
214 -215 0
214 337 -187 0
214 -337 -191 0
215 -337 -198 0
215 337 -203 0
-215 337 203 0
-215 -337 198 0
216 7 217 -218 0
216 7 -151 -218 0
-216 218 0
-216 -7 0
-216 151 -217 0
217 -335 180 0
-217 335 0
-217 -180 0
218 336 -220 0
218 -336 -219 0
218 -335 336 0
-218 -336 219 0
-218 335 336 220 0
219 335 -179 0
219 335 -214 0
219 335 -210 0
-219 -335 0
-219 179 210 214 0
-220 221 225 229 0
220 -221 0
220 -229 0
220 -225 0
221 -337 -206 0
221 337 -222 0
-221 337 222 0
-221 -337 206 0
222 -338 -224 0
222 338 -223 0
-222 338 223 0
-222 -338 224 0
-223 339 359 0
-223 -339 358 0
223 -339 -358 0
223 339 -359 0
-224 339 357 0
-224 -339 356 0
224 -339 -356 0
224 339 -357 0
225 -337 -165 0
225 337 -226 0
-225 337 226 0
-225 -337 165 0
226 -338 -228 0
226 338 -227 0
-226 338 227 0
-226 -338 228 0
-227 339 360 0
-227 -339 359 0
227 -339 -359 0
227 339 -360 0
-228 339 358 0
-228 -339 357 0
228 -339 -357 0
228 339 -358 0
229 337 -232 0
229 -337 -230 0
229 337 -231 0
-229 -337 230 0
-229 337 231 232 0
-230 184 202 0
230 -184 0
230 -202 0
231 338 -224 0
231 -338 -207 0
-231 -338 207 0
-231 338 224 0
232 338 -228 0
232 -338 -166 0
-232 -338 166 0
-232 338 228 0
-233 -335 211 249 0
-233 335 234 249 0
233 -249 0
233 -335 -211 0
233 335 -234 0
234 -336 -164 0
234 336 -235 0
234 -336 -229 0
-234 336 235 0
-234 -336 164 229 0
235 236 -243 0
235 -337 236 0
235 236 -241 0
-235 -236 0
-235 337 241 243 0
236 -337 226 237 239 0
-236 -239 0
-236 -237 0
-236 337 0
-236 -226 0
237 338 -238 0
237 -338 -223 0
-237 -338 223 0
-237 338 238 0
-238 339 361 0
-238 -339 360 0
238 -339 -360 0
238 339 -361 0
239 338 -240 0
239 -338 -227 0
-239 -338 227 0
-239 338 240 0
-240 339 362 0
-240 -339 361 0
240 -339 -361 0
240 339 -362 0
241 338 -242 0
241 -338 -240 0
-241 -338 240 0
-241 338 242 0
-242 339 364 0
-242 -339 363 0
242 -339 -363 0
242 339 -364 0
-243 244 247 0
243 -244 0
243 -247 0
244 -338 -246 0
244 338 -245 0
-244 338 245 0
-244 -338 246 0
-245 339 365 0
-245 -339 364 0
245 -339 -364 0
245 339 -365 0
-246 339 363 0
-246 -339 362 0
246 -339 -362 0
246 339 -363 0
247 338 -248 0
247 -338 -242 0
-247 -338 242 0
-247 338 248 0
-248 339 366 0
-248 -339 365 0
248 -339 -365 0
248 339 -366 0
249 -335 -194 0
249 335 250 -251 0
-249 335 251 0
-249 -335 194 0
-249 335 -250 0
250 -336 183 201 205 0
-250 -205 0
-250 -201 0
-250 336 0
-250 -183 0
-251 336 252 253 254 0
251 -254 0
251 -253 0
251 -336 0
251 -252 0
252 -337 -231 0
252 337 -237 0
-252 337 237 0
-252 -337 231 0
253 -337 -232 0
253 337 -239 0
-253 337 239 0
-253 -337 232 0
254 -337 -222 0
254 337 -255 0
-254 337 255 0
-254 -337 222 0
255 338 -246 0
255 -338 -238 0
-255 -338 238 0
-255 338 246 0
256 335 7 -257 0
256 -335 7 -209 0
-256 -7 0
-256 335 257 0
-256 -335 209 0
-257 -336 221 0
-257 336 258 0
257 -336 -221 0
257 336 -258 0
-258 337 259 0
-258 -337 255 0
258 -337 -255 0
258 337 -259 0
259 338 -260 0
259 -338 -245 0
-259 -338 245 0
-259 338 260 0
-260 339 367 0
-260 -339 366 0
260 -339 -366 0
260 339 -367 0
261 335 7 -262 0
261 -335 7 -178 0
-261 -7 0
-261 335 262 0
-261 -335 178 0
-262 -336 225 0
-262 336 263 0
262 -336 -225 0
262 336 -263 0
-263 -337 241 0
-263 337 264 0
263 -337 -241 0
263 337 -264 0
-264 -338 248 0
-264 338 265 0
264 338 -265 0
264 -338 -248 0
-265 339 368 0
-265 -339 367 0
265 -339 -367 0
265 339 -368 0
266 267 -272 0
-266 -267 0
-266 272 0
267 335 7 -268 0
267 -335 7 -182 0
-267 -7 0
-267 335 268 0
-267 -335 182 0
-268 -336 252 0
-268 336 269 0
268 -336 -252 0
268 336 -269 0
-269 -337 244 0
-269 337 270 0
269 -337 -244 0
269 337 -270 0
-270 -338 260 0
-270 338 271 0
270 338 -271 0
270 -338 -260 0
-271 339 369 0
-271 -339 368 0
271 -339 -368 0
271 339 -369 0
272 273 -279 0
-272 -273 0
-272 279 0
273 335 7 -274 0
273 -335 7 -200 0
-273 -7 0
-273 335 274 0
-273 -335 200 0
-274 -336 253 0
-274 336 275 0
274 -336 -253 0
274 336 -275 0
-275 -337 247 0
-275 337 276 0
275 -337 -247 0
275 337 -276 0
-276 -338 265 0
-276 338 277 278 0
276 338 -277 0
276 -338 -265 0
276 338 -278 0
277 -339 -369 0
-277 339 0
-277 369 0
278 339 -370 0
-278 -339 0
-278 370 0
279 -335 280 0
-279 335 0
-279 -280 0
280 335 7 -281 0
280 -335 7 -204 0
-280 -7 0
-280 335 281 0
-280 -335 204 0
-281 -336 254 0
-281 336 282 0
281 -336 -254 0
281 336 -282 0
-282 -337 259 0
-282 337 283 0
282 -337 -259 0
282 337 -283 0
-283 -338 271 0
-283 338 284 23 0
283 338 -284 0
283 -338 -271 0
283 338 -23 0
284 -339 -370 0
-284 339 0
-284 370 0
285 -5 24 0
285 -337 24 0
-285 -24 0
-285 337 5 0
286 148 256 261 -287 0
-286 287 0
-286 -261 0
-286 -148 0
-286 -256 0
287 267 273 -288 0
287 267 -273 -279 0
-287 -267 0
-287 -273 279 0
-287 273 288 0
288 -337 280 0
288 -336 -280 0
-288 337 280 0
-288 336 -280 0
-289 290 291 -294 -299 0
-289 -290 -291 -294 -299 0
-289 290 291 294 299 0
-289 -290 -291 294 299 0
289 290 -291 0
289 -290 291 0
289 294 -299 0
289 -294 299 0
290 -5 24 0
290 -336 24 0
-290 -24 0
-290 336 5 0
291 148 256 261 -292 0
-291 292 0
-291 -261 0
-291 -148 0
-291 -256 0
292 267 273 -293 0
-292 293 0
-292 -273 0
-292 -267 0
293 -336 280 0
293 -335 -280 0
-293 336 280 0
-293 335 -280 0
294 -5 24 0
294 24 295 -296 0
-294 -24 0
-294 5 296 0
-294 5 -295 0
295 6 -91 0
-295 -6 0
-295 91 0
296 -338 297 298 0
-296 338 0
-296 -298 0
-296 -297 0
297 6 -92 0
-297 -6 0
-297 92 0
298 6 -102 0
-298 -6 0
-298 102 0
299 148 256 261 -300 0
-299 300 0
-299 -261 0
-299 -148 0
-299 -256 0
300 267 273 -301 0
300 267 -273 -293 0
-300 -267 0
-300 -273 293 0
-300 273 301 0
301 -338 280 0
301 -337 -280 0
-301 338 280 0
-301 337 -280 0
302 -5 24 0
302 24 295 -303 0
-302 -24 0
-302 5 303 0
-302 5 -295 0
303 -339 -6 297 0
303 -339 54 297 0
-303 339 0
-303 -297 0
-303 6 -54 0
304 148 256 261 -305 0
-304 305 0
-304 -261 0
-304 -148 0
-304 -256 0
-305 -267 -273 0
-305 267 306 0
-305 -267 279 0
305 267 -306 0
305 -267 273 -279 0
-306 273 307 0
-306 -273 288 0
306 -273 -288 0
306 273 -307 0
307 -339 280 0
307 -338 -280 0
-307 339 280 0
-307 338 -280 0
-372 0
2 0

